sat
(= |goto_symex::&92;guard#1| true)
(= |goto_symex::&92;guard#2| false)
(= |memory_model::choice_rf_1_41_0_10_T_0| false)
(= |memory_model::choice_rf_1_41_2_17_T_1| false)
(= |memory_model::choice_rf_1_41_3_37_T_2| true)
(= |memory_model::choice_rf_2_16_0_10_T_3| true)
(= |memory_model::choice_rf_2_16_1_42_T_4| false)
(= |memory_model::choice_rf_2_16_3_37_T_5| false)
(= |memory_model::choice_rf_3_36_0_10_T_6| false)
(= |memory_model::choice_rf_3_36_1_42_T_7| false)
(= |memory_model::choice_rf_3_36_2_17_T_8| true)
(= |memory_model::choice_rf_0_45_0_8_T_9| false)
(= |memory_model::choice_rf_0_45_0_41_T_10| true)
(= |memory_model::choice_rf_0_50_0_8_T_11| false)
(= |memory_model::choice_rf_0_50_0_41_T_12| false)
(= |memory_model::choice_rf_0_50_0_46_T_13| true)
(= |memory_model::choice_rf_1_19_0_37_F_14| false)
(= |memory_model::choice_rf_1_22_0_37_F_15| false)
(= |memory_model::choice_rf_1_22_1_20_F_16| true)
(= |memory_model::choice_rf_0_54_0_11_F_17| false)
(= |memory_model::choice_rf_0_54_1_40_F_18| false)
(= |memory_model::choice_rf_0_54_2_15_F_19| false)
(= |memory_model::choice_rf_0_54_3_35_F_20| true)
(= |memory_model::choice_rf_1_39_0_11_F_21| false)
(= |memory_model::choice_rf_1_39_2_15_F_22| true)
(= |memory_model::choice_rf_1_39_3_35_F_23| false)
(= |memory_model::choice_rf_2_14_0_11_F_24| true)
(= |memory_model::choice_rf_2_14_1_40_F_25| false)
(= |memory_model::choice_rf_2_14_3_35_F_26| false)
(= |memory_model::choice_rf_3_34_0_11_F_27| false)
(= |memory_model::choice_rf_3_34_1_40_F_28| true)
(= |memory_model::choice_rf_3_34_2_15_F_29| false)
(= |memory_model::choice_rf_0_73_0_12_F_30| false)
(= |memory_model::choice_rf_0_73_1_23_F_31| true)
(= |memory_model::choice_rf_1_21_0_12_F_32| false)
(= |memory_model::choice_rf_0_71_0_13_F_33| false)
(= |memory_model::choice_rf_0_71_1_26_F_34| true)
(= |memory_model::choice_rf_1_24_0_13_F_35| false)
(= |memory_model::choice_rf_0_70_0_14_F_36| false)
(= |memory_model::choice_rf_0_70_3_2_F_37| true)
(= |memory_model::choice_rf_0_72_0_15_F_38| false)
(= |memory_model::choice_rf_0_72_3_15_F_39| true)
(= |memory_model::choice_rf_0_57_0_16_F_40| false)
(= |memory_model::choice_rf_0_57_1_38_F_41| false)
(= |memory_model::choice_rf_0_57_2_13_F_42| false)
(= |memory_model::choice_rf_0_57_3_16_F_43| false)
(= |memory_model::choice_rf_0_57_3_33_F_44| true)
(= |memory_model::choice_rf_1_27_0_16_F_45| false)
(= |memory_model::choice_rf_1_27_0_68_F_46| false)
(= |memory_model::choice_rf_1_27_2_13_F_47| false)
(= |memory_model::choice_rf_1_27_3_16_F_48| true)
(= |memory_model::choice_rf_1_27_3_33_F_49| false)
(= |memory_model::choice_rf_2_2_0_16_F_50| false)
(= |memory_model::choice_rf_2_2_0_68_F_51| false)
(= |memory_model::choice_rf_2_2_1_38_F_52| true)
(= |memory_model::choice_rf_2_2_3_16_F_53| false)
(= |memory_model::choice_rf_2_2_3_33_F_54| false)
(= |memory_model::choice_rf_3_9_0_16_F_55| true)
(= |memory_model::choice_rf_3_9_0_68_F_56| false)
(= |memory_model::choice_rf_3_9_1_38_F_57| false)
(= |memory_model::choice_rf_3_9_2_13_F_58| false)
(= |memory_model::choice_rf_3_22_0_16_F_59| false)
(= |memory_model::choice_rf_3_22_0_68_F_60| false)
(= |memory_model::choice_rf_3_22_1_38_F_61| false)
(= |memory_model::choice_rf_3_22_2_13_F_62| true)
(= |memory_model::choice_rf_3_22_3_16_F_63| false)
(= |memory_model::choice_rf_0_62_0_19_F_64| true)
(= |memory_model::choice_rf_1_5_0_19_F_65| true)
(= |memory_model::choice_rf_1_5_0_65_F_66| false)
(= |memory_model::choice_rf_1_3_0_20_F_67| true)
(= |memory_model::choice_rf_1_32_0_20_F_68| false)
(= |memory_model::choice_rf_1_32_1_10_F_69| true)
(= |memory_model::choice_rf_1_1_0_21_F_70| true)
(= |memory_model::choice_rf_1_1_2_9_F_71| false)
(= |memory_model::choice_rf_2_6_0_21_F_72| true)
(= |memory_model::choice_rf_1_0_0_22_F_73| true)
(= |memory_model::choice_rf_1_0_3_18_F_74| false)
(= |memory_model::choice_rf_1_0_3_29_F_75| false)
(= |memory_model::choice_rf_3_6_0_22_F_76| true)
(= |memory_model::choice_rf_3_26_0_22_F_77| false)
(= |memory_model::choice_rf_3_26_3_18_F_78| true)
(= |memory_model::choice_rf_0_61_0_23_F_79| false)
(= |memory_model::choice_rf_0_61_1_12_F_80| true)
(= |memory_model::choice_rf_1_4_0_23_F_81| false)
(= |memory_model::choice_rf_1_4_0_64_F_82| false)
(= |memory_model::choice_rf_1_2_0_24_F_83| false)
(= |memory_model::choice_rf_1_31_0_24_F_84| false)
(= |memory_model::choice_rf_1_31_1_11_F_85| true)
(= |memory_model::choice_rf_1_7_0_25_F_86| false)
(= |memory_model::choice_rf_1_7_2_11_F_87| false)
(= |memory_model::choice_rf_2_7_0_25_F_88| false)
(= |memory_model::choice_rf_2_7_1_14_F_89| true)
(= |memory_model::choice_rf_1_6_0_26_F_90| false)
(= |memory_model::choice_rf_1_6_3_11_F_91| false)
(= |memory_model::choice_rf_1_6_3_31_F_92| false)
(= |memory_model::choice_rf_3_7_0_26_F_93| false)
(= |memory_model::choice_rf_3_7_1_13_F_94| true)
(= |memory_model::choice_rf_3_27_0_26_F_95| false)
(= |memory_model::choice_rf_3_27_1_13_F_96| false)
(= |memory_model::choice_rf_3_27_3_11_F_97| true)
(= |memory_model::choice_rf_0_60_0_29_F_98| false)
(= |memory_model::choice_rf_0_60_1_17_F_99| false)
(= |memory_model::choice_rf_0_60_3_14_F_100| true)
(= |memory_model::choice_rf_1_9_0_29_F_101| true)
(= |memory_model::choice_rf_1_9_3_14_F_102| false)
(= |memory_model::choice_rf_1_30_0_29_F_103| false)
(= |memory_model::choice_rf_1_30_1_17_F_104| false)
(= |memory_model::choice_rf_1_30_3_14_F_105| true)
(= |memory_model::choice_rf_2_5_0_29_F_106| false)
(= |memory_model::choice_rf_2_5_1_17_F_107| false)
(= |memory_model::choice_rf_2_5_3_14_F_108| true)
(= |memory_model::choice_rf_3_4_0_29_F_109| false)
(= |memory_model::choice_rf_3_4_1_17_F_110| true)
(= |memory_model::choice_rf_3_25_0_29_F_111| false)
(= |memory_model::choice_rf_3_25_1_17_F_112| false)
(= |memory_model::choice_rf_3_25_3_14_F_113| true)
(= |memory_model::choice_rf_0_63_0_30_F_114| false)
(= |memory_model::choice_rf_0_63_1_15_F_115| false)
(= |memory_model::choice_rf_0_63_1_37_F_116| false)
(= |memory_model::choice_rf_0_63_2_12_F_117| false)
(= |memory_model::choice_rf_0_63_3_12_F_118| false)
(= |memory_model::choice_rf_0_63_3_32_F_119| true)
(= |memory_model::choice_rf_1_8_0_30_F_120| true)
(= |memory_model::choice_rf_1_8_0_67_F_121| false)
(= |memory_model::choice_rf_1_8_2_12_F_122| false)
(= |memory_model::choice_rf_1_8_3_12_F_123| false)
(= |memory_model::choice_rf_1_8_3_32_F_124| false)
(= |memory_model::choice_rf_1_33_0_30_F_125| false)
(= |memory_model::choice_rf_1_33_0_67_F_126| false)
(= |memory_model::choice_rf_1_33_1_15_F_127| false)
(= |memory_model::choice_rf_1_33_2_12_F_128| false)
(= |memory_model::choice_rf_1_33_3_12_F_129| true)
(= |memory_model::choice_rf_1_33_3_32_F_130| false)
(= |memory_model::choice_rf_2_8_0_30_F_131| false)
(= |memory_model::choice_rf_2_8_0_67_F_132| false)
(= |memory_model::choice_rf_2_8_1_15_F_133| false)
(= |memory_model::choice_rf_2_8_1_37_F_134| true)
(= |memory_model::choice_rf_2_8_3_12_F_135| false)
(= |memory_model::choice_rf_2_8_3_32_F_136| false)
(= |memory_model::choice_rf_3_8_0_30_F_137| false)
(= |memory_model::choice_rf_3_8_0_67_F_138| false)
(= |memory_model::choice_rf_3_8_1_15_F_139| true)
(= |memory_model::choice_rf_3_8_1_37_F_140| false)
(= |memory_model::choice_rf_3_8_2_12_F_141| false)
(= |memory_model::choice_rf_3_28_0_30_F_142| false)
(= |memory_model::choice_rf_3_28_0_67_F_143| false)
(= |memory_model::choice_rf_3_28_1_15_F_144| false)
(= |memory_model::choice_rf_3_28_1_37_F_145| false)
(= |memory_model::choice_rf_3_28_2_12_F_146| true)
(= |memory_model::choice_rf_3_28_3_12_F_147| false)
(= |memory_model::choice_rf_0_58_0_31_F_148| false)
(= |memory_model::choice_rf_0_58_1_18_F_149| false)
(= |memory_model::choice_rf_0_58_3_13_F_150| true)
(= |memory_model::choice_rf_1_28_0_31_F_151| false)
(= |memory_model::choice_rf_1_28_1_18_F_152| false)
(= |memory_model::choice_rf_1_28_3_13_F_153| true)
(= |memory_model::choice_rf_2_3_0_31_F_154| false)
(= |memory_model::choice_rf_2_3_1_18_F_155| false)
(= |memory_model::choice_rf_2_3_3_13_F_156| true)
(= |memory_model::choice_rf_3_3_0_31_F_157| false)
(= |memory_model::choice_rf_3_3_1_18_F_158| true)
(= |memory_model::choice_rf_3_23_0_31_F_159| false)
(= |memory_model::choice_rf_3_23_1_18_F_160| false)
(= |memory_model::choice_rf_3_23_3_13_F_161| true)
(= |memory_model::choice_rf_0_59_0_32_F_162| false)
(= |memory_model::choice_rf_0_59_1_16_F_163| false)
(= |memory_model::choice_rf_0_59_1_36_F_164| false)
(= |memory_model::choice_rf_0_59_2_10_F_165| false)
(= |memory_model::choice_rf_0_59_3_10_F_166| false)
(= |memory_model::choice_rf_0_59_3_30_F_167| true)
(= |memory_model::choice_rf_1_29_0_32_F_168| false)
(= |memory_model::choice_rf_1_29_0_66_F_169| false)
(= |memory_model::choice_rf_1_29_1_16_F_170| false)
(= |memory_model::choice_rf_1_29_2_10_F_171| false)
(= |memory_model::choice_rf_1_29_3_10_F_172| true)
(= |memory_model::choice_rf_1_29_3_30_F_173| false)
(= |memory_model::choice_rf_2_4_0_32_F_174| false)
(= |memory_model::choice_rf_2_4_0_66_F_175| false)
(= |memory_model::choice_rf_2_4_1_16_F_176| false)
(= |memory_model::choice_rf_2_4_1_36_F_177| true)
(= |memory_model::choice_rf_2_4_3_10_F_178| false)
(= |memory_model::choice_rf_2_4_3_30_F_179| false)
(= |memory_model::choice_rf_3_5_0_32_F_180| false)
(= |memory_model::choice_rf_3_5_0_66_F_181| false)
(= |memory_model::choice_rf_3_5_1_16_F_182| true)
(= |memory_model::choice_rf_3_5_1_36_F_183| false)
(= |memory_model::choice_rf_3_5_2_10_F_184| false)
(= |memory_model::choice_rf_3_24_0_32_F_185| false)
(= |memory_model::choice_rf_3_24_0_66_F_186| false)
(= |memory_model::choice_rf_3_24_1_16_F_187| false)
(= |memory_model::choice_rf_3_24_1_36_F_188| false)
(= |memory_model::choice_rf_3_24_2_10_F_189| true)
(= |memory_model::choice_rf_3_24_3_10_F_190| false)
(= |memory_model::choice_rf_0_56_0_33_F_191| false)
(= |memory_model::choice_rf_0_56_0_55_F_192| true)
(= |memory_model::choice_rf_0_69_0_34_F_193| false)
(= |memory_model::choice_rf_0_76_0_34_F_194| false)
(= |memory_model::choice_rf_0_76_0_75_F_195| true)
(= |memory_model::choice_rf_0_77_0_34_F_196| false)
(= |memory_model::choice_rf_0_77_0_75_F_197| true)
(= |memory_model::choice_rf_1_25_0_38_F_198| true)
(= |memory_model::choice_rf_1_25_2_0_F_199| false)
(= |memory_model::choice_rf_0_74_0_39_F_200| false)
(= |memory_model::choice_rf_0_74_2_1_F_201| false)
(= |memory_model::choice_rf_0_74_3_0_F_202| true)
(= |memory_model::choice_rf_3_1_0_39_F_203| false)
(= |memory_model::choice_rf_3_1_2_1_F_204| false)
(= |memory_model::choice_rf_3_1_3_0_F_205| true)
(= |memory_model::choice_ws-ext_0_10_1_42_T_206| true)
(= |memory_model::choice_ws-ext_0_10_2_17_T_207| true)
(= |memory_model::choice_ws-ext_0_10_3_37_T_208| true)
(= |memory_model::choice_ws-ext_1_42_2_17_T_209| false)
(= |memory_model::choice_ws-ext_1_42_3_37_T_210| false)
(= |memory_model::choice_ws-ext_2_17_3_37_T_211| true)
(= |memory_model::choice_ws-ext_0_37_1_20_F_212| true)
(= |memory_model::choice_ws-ext_0_11_1_40_F_213| true)
(= |memory_model::choice_ws-ext_0_11_2_15_F_214| true)
(= |memory_model::choice_ws-ext_0_11_3_35_F_215| true)
(= |memory_model::choice_ws-ext_1_40_2_15_F_216| false)
(= |memory_model::choice_ws-ext_1_40_3_35_F_217| true)
(= |memory_model::choice_ws-ext_2_15_3_35_F_218| true)
(= |memory_model::choice_ws-ext_0_12_1_23_F_219| true)
(= |memory_model::choice_ws-ext_0_13_1_26_F_220| true)
(= |memory_model::choice_ws-ext_0_14_3_2_F_221| true)
(= |memory_model::choice_ws-ext_0_15_3_15_F_222| true)
(= |memory_model::choice_ws-ext_0_16_1_38_F_223| true)
(= |memory_model::choice_ws-ext_0_16_2_13_F_224| true)
(= |memory_model::choice_ws-ext_0_16_3_16_F_225| true)
(= |memory_model::choice_ws-ext_0_16_3_33_F_226| true)
(= |memory_model::choice_ws-ext_0_68_1_38_F_227| false)
(= |memory_model::choice_ws-ext_0_68_2_13_F_228| false)
(= |memory_model::choice_ws-ext_0_68_3_16_F_229| false)
(= |memory_model::choice_ws-ext_0_68_3_33_F_230| false)
(= |memory_model::choice_ws-ext_1_38_2_13_F_231| true)
(= |memory_model::choice_ws-ext_1_38_3_16_F_232| false)
(= |memory_model::choice_ws-ext_1_38_3_33_F_233| true)
(= |memory_model::choice_ws-ext_2_13_3_16_F_234| false)
(= |memory_model::choice_ws-ext_2_13_3_33_F_235| true)
(= |memory_model::choice_ws-ext_0_17_3_19_F_236| true)
(= |memory_model::choice_ws-ext_0_18_3_17_F_237| true)
(= |memory_model::choice_ws-ext_0_20_1_10_F_238| true)
(= |memory_model::choice_ws-ext_0_20_1_35_F_239| true)
(= |memory_model::choice_ws-ext_0_21_2_9_F_240| true)
(= |memory_model::choice_ws-ext_0_22_3_18_F_241| true)
(= |memory_model::choice_ws-ext_0_22_3_29_F_242| true)
(= |memory_model::choice_ws-ext_0_23_1_12_F_243| true)
(= |memory_model::choice_ws-ext_0_64_1_12_F_244| false)
(= |memory_model::choice_ws-ext_0_24_1_11_F_245| true)
(= |memory_model::choice_ws-ext_0_24_1_34_F_246| true)
(= |memory_model::choice_ws-ext_0_25_1_14_F_247| true)
(= |memory_model::choice_ws-ext_0_25_2_11_F_248| true)
(= |memory_model::choice_ws-ext_1_14_2_11_F_249| true)
(= |memory_model::choice_ws-ext_0_26_1_13_F_250| true)
(= |memory_model::choice_ws-ext_0_26_3_11_F_251| true)
(= |memory_model::choice_ws-ext_0_26_3_31_F_252| true)
(= |memory_model::choice_ws-ext_1_13_3_11_F_253| true)
(= |memory_model::choice_ws-ext_1_13_3_31_F_254| true)
(= |memory_model::choice_ws-ext_0_29_1_17_F_255| true)
(= |memory_model::choice_ws-ext_0_29_3_14_F_256| true)
(= |memory_model::choice_ws-ext_1_17_3_14_F_257| true)
(= |memory_model::choice_ws-ext_0_30_1_15_F_258| true)
(= |memory_model::choice_ws-ext_0_30_1_37_F_259| true)
(= |memory_model::choice_ws-ext_0_30_2_12_F_260| true)
(= |memory_model::choice_ws-ext_0_30_3_12_F_261| true)
(= |memory_model::choice_ws-ext_0_30_3_32_F_262| true)
(= |memory_model::choice_ws-ext_0_67_1_15_F_263| false)
(= |memory_model::choice_ws-ext_0_67_1_37_F_264| false)
(= |memory_model::choice_ws-ext_0_67_2_12_F_265| false)
(= |memory_model::choice_ws-ext_0_67_3_12_F_266| false)
(= |memory_model::choice_ws-ext_0_67_3_32_F_267| false)
(= |memory_model::choice_ws-ext_1_15_2_12_F_268| true)
(= |memory_model::choice_ws-ext_1_15_3_12_F_269| true)
(= |memory_model::choice_ws-ext_1_15_3_32_F_270| true)
(= |memory_model::choice_ws-ext_1_37_2_12_F_271| true)
(= |memory_model::choice_ws-ext_1_37_3_12_F_272| false)
(= |memory_model::choice_ws-ext_1_37_3_32_F_273| true)
(= |memory_model::choice_ws-ext_2_12_3_12_F_274| false)
(= |memory_model::choice_ws-ext_2_12_3_32_F_275| true)
(= |memory_model::choice_ws-ext_0_31_1_18_F_276| true)
(= |memory_model::choice_ws-ext_0_31_3_13_F_277| true)
(= |memory_model::choice_ws-ext_1_18_3_13_F_278| true)
(= |memory_model::choice_ws-ext_0_32_1_16_F_279| true)
(= |memory_model::choice_ws-ext_0_32_1_36_F_280| true)
(= |memory_model::choice_ws-ext_0_32_2_10_F_281| true)
(= |memory_model::choice_ws-ext_0_32_3_10_F_282| true)
(= |memory_model::choice_ws-ext_0_32_3_30_F_283| true)
(= |memory_model::choice_ws-ext_0_66_1_16_F_284| false)
(= |memory_model::choice_ws-ext_0_66_1_36_F_285| false)
(= |memory_model::choice_ws-ext_0_66_2_10_F_286| false)
(= |memory_model::choice_ws-ext_0_66_3_10_F_287| false)
(= |memory_model::choice_ws-ext_0_66_3_30_F_288| false)
(= |memory_model::choice_ws-ext_1_16_2_10_F_289| true)
(= |memory_model::choice_ws-ext_1_16_3_10_F_290| true)
(= |memory_model::choice_ws-ext_1_16_3_30_F_291| true)
(= |memory_model::choice_ws-ext_1_36_2_10_F_292| true)
(= |memory_model::choice_ws-ext_1_36_3_10_F_293| false)
(= |memory_model::choice_ws-ext_1_36_3_30_F_294| true)
(= |memory_model::choice_ws-ext_2_10_3_10_F_295| false)
(= |memory_model::choice_ws-ext_2_10_3_30_F_296| true)
(= |memory_model::choice_ws-ext_0_38_2_0_F_297| true)
(= |memory_model::choice_ws-ext_0_39_2_1_F_298| true)
(= |memory_model::choice_ws-ext_0_39_3_0_F_299| true)
(= |memory_model::choice_ws-ext_2_1_3_0_F_300| true)
(= |memory_model::choice_ws-ext_0_35_3_21_F_301| true)
(= |memory_model::choice_ws-ext_0_36_3_20_F_302| true)
(= |main$tmp_guard0#3| #b00000001)
(= |__CPROVER_next_thread_id#3| #b00000000000000000000000000000001)
(= |__CPROVER_next_thread_id#6| #b00000000000000000000000000000010)
(= |__unbuffered_cnt#2| #b00000000000000000000000000000011)
(= |a$w_buff0_used#2| #b00000000)
(= |a$r_buff0_thd0#2| #b00000000)
(= |a$w_buff0#2| #b00000000000000000000000000000001)
(= |a$w_buff1_used#2| #b00000000)
(= |a$r_buff1_thd0#2| #b00000000)
(= |a$w_buff1#2| #b00000000000000000000000000000000)
(= |a#2| #b00000000000000000000000000000001)
(= |a#4| #b00000000000000000000000000000001)
(= |a$w_buff0_used#6| #b00000000)
(= |a$w_buff1_used#6| #b00000000)
(= |a$r_buff0_thd0#8| #b00000000)
(= |a$r_buff1_thd0#7| #b00000000)
(= |z#2| #b00000000000000000000000000000010)
(= |__unbuffered_p0_EAX#2| #b00000000000000000000000000000001)
(= |__unbuffered_p0_EBX#2| #b00000000000000000000000000000000)
(= |__unbuffered_p2_EAX#2| #b00000000000000000000000000000010)
(= |__unbuffered_p2_EBX#2| #b00000000000000000000000000000000)
(= |main$tmp_guard1#2| #b00000000)
(= |main$tmp_guard1#3| #b10000000)
(= |main$tmp_guard1#6| #b00000000)
(= |pthread_create::1::this_thread_id!1@0#0| #b00000000000000000000000000000000)
(= |a$w_buff0#4| #b00000000000000000000000000000000)
(= |a$w_buff0_used#11| #b00000000)
(= |a$r_buff0_thd0#11| #b00000000)
(= |a$r_buff1_thd0#9| #b00000000)
(= |a$r_buff1_thd0#10| #b10000000)
(= |a$r_buff0_thd1#2| #b00000000)
(= |a$r_buff1_thd1#2| #b00000000)
(= |a$r_buff1_thd1#3| #b10000000)
(= |a$r_buff0_thd2#2| #b00000000)
(= |a$r_buff1_thd2#2| #b00000000)
(= |a$r_buff1_thd2#3| #b10000000)
(= |a$r_buff0_thd3#2| #b00000000)
(= |a$r_buff1_thd3#2| #b00000000)
(= |a$r_buff1_thd3#3| #b10000000)
(= |a$r_buff0_thd1#4| #b00000001)
(= |x#2| #b00000000000000000000000000000001)
(= |x#3| #b10000000000000000000000000000000)
(= |x#5| #b00000000000000000000000000000001)
(= |__unbuffered_p0_EAX#4| #b00000000000000000000000000000001)
(= |__unbuffered_p0_EAX#5| #b10000000000000000000000000000000)
(= |y#2| #b00000000000000000000000000000000)
(= |__unbuffered_p0_EBX#4| #b00000000000000000000000000000000)
(= |__unbuffered_p0_EBX#5| #b10000000000000000000000000000000)
(= |a$w_buff0_used#14| #b00000001)
(= |a$r_buff0_thd1#6| #b00000001)
(= |a$w_buff0#7| #b00000000000000000000000000000001)
(= |a$w_buff1_used#10| #b00000000)
(= |a$r_buff1_thd1#5| #b00000000)
(= |a$w_buff1#5| #b00000000000000000000000000000000)
(= |a#6| #b00000000000000000000000000000000)
(= |a#8| #b00000000000000000000000000000001)
(= |a$w_buff0_used#18| #b00000000)
(= |a$w_buff1_used#14| #b00000000)
(= |a$r_buff0_thd1#12| #b00000001)
(= |a$r_buff1_thd1#10| #b00000000)
(= |__unbuffered_cnt#4| #b00000000000000000000000000000001)
(= |__unbuffered_cnt#6| #b00000000000000000000000000000010)
(= |pthread_create::1::this_thread_id!2@0#0| #b00000000000000000000000000000000)
(= |a$w_buff0_used#23| #b00000000)
(= |a$r_buff0_thd2#4| #b00000000)
(= |a$w_buff0#9| #b00000000000000000000000000000001)
(= |a$w_buff1_used#17| #b00000000)
(= |a$r_buff1_thd2#5| #b00000000)
(= |a$w_buff1#7| #b00000000000000000000000000000000)
(= |a#10| #b00000000000000000000000000000001)
(= |__unbuffered_cnt#8| #b00000000000000000000000000000000)
(= |pthread_create::1::this_thread_id!3@0#0| #b10000000000000000000000000000000)
(= |z#6| #b00000000000000000000000000000010)
(= |nondet_symex::nondet3| #b00000000000000000000000000000000)
(= |a#13| #b00000000000000000000000000000000)
(= |a$w_buff0_used#26| #b00000001)
(= |a$r_buff0_thd3#4| #b00000000)
(= |a$w_buff1_used#20| #b00000000)
(= |a$r_buff1_thd3#5| #b00000000)
(= |a$w_buff0#11| #b00000000000000000000000000000001)
(= |a$w_buff1#9| #b00000000000000000000000000000000)
(= |a$w_buff0_used#29| #b00000000)
(= |a$r_buff0_thd3#7| #b00000000)
(= |a$w_buff0#14| #b00000000000000000000000000000001)
(= |a$w_buff1_used#23| #b00000000)
(= |a$r_buff1_thd3#8| #b00000000)
(= |a$w_buff1#12| #b00000000000000000000000000000000)
(= |a#17| #b00000000000000000000000000000001)
(= |__unbuffered_cnt#11| #b00000000000000000000000000000010)
(= |__CPROVER_threads_exited#1$wclk$8| #b00010010)
(= |__CPROVER_threads_exited#2$rclk$8| #b11111100)
(= |__CPROVER_threads_exited#5$wclk$8| #b11110111)
(= |__CPROVER_threads_exited#7$wclk$8| #b11111011)
(= |__CPROVER_threads_exited#4$rclk$8| #b11110110)
(= |__CPROVER_threads_exited#3$wclk$8| #b11111111)
(= |__CPROVER_threads_exited#6$rclk$8| #b11111010)
(= |x#1$wclk$8| #b10101111)
(= |x#3$rclk$8| #b11000001)
(= |x#5$rclk$8| #b11000010)
(= |__unbuffered_cnt#7$wclk$8| #b11111000)
(= |__unbuffered_cnt#2$rclk$8| #b11111010)
(= |__unbuffered_cnt#10$wclk$8| #b11110010)
(= |__unbuffered_cnt#13$wclk$8| #b11111001)
(= |__unbuffered_cnt#1$wclk$8| #b00010011)
(= |__unbuffered_cnt#4$rclk$8| #b11111000)
(= |__unbuffered_cnt#8$rclk$8| #b11110010)
(= |__unbuffered_cnt#11$rclk$8| #b11111001)
(= |__unbuffered_p0_EAX#6$wclk$8| #b11000010)
(= |__unbuffered_p0_EAX#2$rclk$8| #b11111101)
(= |__unbuffered_p0_EAX#1$wclk$8| #b00010100)
(= |__unbuffered_p0_EAX#5$rclk$8| #b11000010)
(= |__unbuffered_p0_EBX#6$wclk$8| #b11000100)
(= |__unbuffered_p0_EBX#2$rclk$8| #b11111101)
(= |__unbuffered_p0_EBX#1$wclk$8| #b01000101)
(= |__unbuffered_p0_EBX#5$rclk$8| #b11000100)
(= |__unbuffered_p2_EAX#4$wclk$8| #b11011110)
(= |__unbuffered_p2_EAX#2$rclk$8| #b11111101)
(= |__unbuffered_p2_EBX#4$wclk$8| #b11011111)
(= |__unbuffered_p2_EBX#2$rclk$8| #b11111101)
(= |a#9$wclk$8| #b11110000)
(= |a#2$rclk$8| #b11111100)
(= |a#12$wclk$8| #b11110001)
(= |a#16$wclk$8| #b11011111)
(= |a#19$wclk$8| #b11111000)
(= |a#1$wclk$8| #b01001000)
(= |a#6$rclk$8| #b11110000)
(= |a#5$wclk$8| #b11111100)
(= |a#10$rclk$8| #b11110001)
(= |a#13$rclk$8| #b11011111)
(= |a#17$rclk$8| #b11111000)
(= |a$r_buff0_thd0#1$wclk$8| #b01001011)
(= |a$r_buff0_thd0#11$rclk$8| #b11000000)
(= |a$r_buff0_thd0#10$wclk$8| #b11111100)
(= |a$r_buff0_thd1#1$wclk$8| #b01001100)
(= |a$r_buff0_thd1#2$rclk$8| #b11000000)
(= |a$r_buff0_thd1#6$rclk$8| #b11110000)
(= |a$r_buff0_thd2#1$wclk$8| #b01001101)
(= |a$r_buff0_thd2#2$rclk$8| #b11000000)
(= |a$r_buff0_thd2#6$wclk$8| #b11110001)
(= |a$r_buff0_thd2#4$rclk$8| #b11110001)
(= |a$r_buff0_thd3#1$wclk$8| #b01001110)
(= |a$r_buff0_thd3#2$rclk$8| #b11000000)
(= |a$r_buff0_thd3#6$wclk$8| #b11011111)
(= |a$r_buff0_thd3#9$wclk$8| #b11111000)
(= |a$r_buff0_thd3#4$rclk$8| #b11011111)
(= |a$r_buff0_thd3#7$rclk$8| #b11111000)
(= |a$r_buff1_thd0#11$wclk$8| #b11000000)
(= |a$r_buff1_thd0#2$rclk$8| #b11111100)
(= |a$r_buff1_thd0#1$wclk$8| #b01001111)
(= |a$r_buff1_thd0#10$rclk$8| #b11000000)
(= |a$r_buff1_thd0#8$wclk$8| #b11111100)
(= |a$r_buff1_thd1#1$wclk$8| #b01100000)
(= |a$r_buff1_thd1#3$rclk$8| #b11000000)
(= |a$r_buff1_thd1#5$rclk$8| #b11110000)
(= |a$r_buff1_thd2#1$wclk$8| #b01100001)
(= |a$r_buff1_thd2#3$rclk$8| #b11000000)
(= |a$r_buff1_thd2#7$wclk$8| #b11110001)
(= |a$r_buff1_thd2#5$rclk$8| #b11110001)
(= |a$r_buff1_thd2#4$wclk$8| #b11000000)
(= |a$r_buff1_thd3#1$wclk$8| #b01100010)
(= |a$r_buff1_thd3#3$rclk$8| #b11000000)
(= |a$r_buff1_thd3#7$wclk$8| #b11011111)
(= |a$r_buff1_thd3#10$wclk$8| #b11111000)
(= |a$r_buff1_thd3#5$rclk$8| #b11011111)
(= |a$r_buff1_thd3#4$wclk$8| #b11000000)
(= |a$r_buff1_thd3#8$rclk$8| #b11111000)
(= |a$w_buff0#6$wclk$8| #b11000000)
(= |a$w_buff0#2$rclk$8| #b11111100)
(= |a$w_buff0#13$wclk$8| #b11011111)
(= |a$w_buff0#1$wclk$8| #b01100101)
(= |a$w_buff0#4$rclk$8| #b11000000)
(= |a$w_buff0#7$rclk$8| #b11110000)
(= |a$w_buff0#9$rclk$8| #b11110001)
(= |a$w_buff0#11$rclk$8| #b11011111)
(= |a$w_buff0#14$rclk$8| #b11111000)
(= |a$w_buff0_used#13$wclk$8| #b11000000)
(= |a$w_buff0_used#2$rclk$8| #b11111100)
(= |a$w_buff0_used#22$wclk$8| #b11110000)
(= |a$w_buff0_used#25$wclk$8| #b11110001)
(= |a$w_buff0_used#28$wclk$8| #b11011111)
(= |a$w_buff0_used#31$wclk$8| #b11111000)
(= |a$w_buff0_used#1$wclk$8| #b01100110)
(= |a$w_buff0_used#11$rclk$8| #b11000000)
(= |a$w_buff0_used#10$wclk$8| #b11111100)
(= |a$w_buff0_used#14$rclk$8| #b11110000)
(= |a$w_buff0_used#23$rclk$8| #b11110001)
(= |a$w_buff0_used#26$rclk$8| #b11011111)
(= |a$w_buff0_used#29$rclk$8| #b11111000)
(= |a$w_buff1#4$wclk$8| #b11000000)
(= |a$w_buff1#2$rclk$8| #b11111100)
(= |a$w_buff1#11$wclk$8| #b11011111)
(= |a$w_buff1#1$wclk$8| #b01100111)
(= |a$w_buff1#5$rclk$8| #b11110000)
(= |a$w_buff1#7$rclk$8| #b11110001)
(= |a$w_buff1#9$rclk$8| #b11011111)
(= |a$w_buff1#12$rclk$8| #b11111000)
(= |a$w_buff1_used#9$wclk$8| #b11000000)
(= |a$w_buff1_used#2$rclk$8| #b11111100)
(= |a$w_buff1_used#16$wclk$8| #b11110000)
(= |a$w_buff1_used#19$wclk$8| #b11110001)
(= |a$w_buff1_used#22$wclk$8| #b11011111)
(= |a$w_buff1_used#25$wclk$8| #b11111000)
(= |a$w_buff1_used#1$wclk$8| #b01101110)
(= |a$w_buff1_used#10$rclk$8| #b11110000)
(= |a$w_buff1_used#8$wclk$8| #b11111100)
(= |a$w_buff1_used#17$rclk$8| #b11110001)
(= |a$w_buff1_used#20$rclk$8| #b11011111)
(= |a$w_buff1_used#23$rclk$8| #b11111000)
(= |main$tmp_guard1#5| #b00000000)
(= |y#1$wclk$8| #b10110000)
(= |y#2$rclk$8| #b11000100)
(= |y#4$wclk$8| #b11011011)
(= |z#4$wclk$8| #b11011100)
(= |z#2$rclk$8| #b11111101)
(= |z#5$wclk$8| #b11011101)
(= |z#1$wclk$8| #b10110001)
(= |z#6$rclk$8| #b11011110)
(= |x#4$wclk$8| #b11000001)
(= |__unbuffered_p2_EAX#1$wclk$8| #b01000110)
(= |__unbuffered_p2_EBX#1$wclk$8| #b01000111)
(= |a$flush_delayed#1$wclk$8| #b01001001)
(= |a$flush_delayed#3$wclk$8| #b11011111)
(= |a$mem_tmp#1$wclk$8| #b01001010)
(= |a$mem_tmp#2$wclk$8| #b11011111)
(= |a$r_buff0_thd1#5$wclk$8| #b11000000)
(= |a$r_buff0_thd1#14$wclk$8| #b11110000)
(= |a$r_buff1_thd1#4$wclk$8| #b11000000)
(= |a$r_buff1_thd1#11$wclk$8| #b11110000)
(= |weak$$choice0#1$wclk$8| #b10101101)
(= |weak$$choice0#2$wclk$8| #b11011111)
(= |weak$$choice2#1$wclk$8| #b10101110)
(= |weak$$choice2#2$wclk$8| #b11011111)
(= t1$43$spwnclk$8 #b10110101)
(= t1$48$spwnclk$8 #b10111001)
(= t1$53$spwnclk$8 #b10111101)
(= |main::1::t636!0@1$wclk$8| #b00000000)
(= |main::1::t637!0@1$wclk$8| #b00001000)
(= |__CPROVER_dead_object#1$wclk$8| #b00001001)
(= |__CPROVER_deallocated#1$wclk$8| #b00001010)
(= |__CPROVER_malloc_is_new_array#1$wclk$8| #b00001100)
(= |__CPROVER_malloc_object#1$wclk$8| #b00001101)
(= |__CPROVER_malloc_size#1$wclk$8| #b00001110)
(= |__CPROVER_memory_leak#1$wclk$8| #b00001111)
(= |__CPROVER_next_thread_id#1$wclk$8| #b00010000)
(= |__CPROVER_pipe_count#1$wclk$8| #b00010001)
(= |a$read_delayed#1$wclk$8| #b01100011)
(= |a$read_delayed_var#1$wclk$8| #b01100100)
(= |main$tmp_guard0#1$wclk$8| #b10101001)
(= |main$tmp_guard1#1$wclk$8| #b10101100)
(= |main::1::t635!0@1#1$wclk$8| #b10110010)
(= |__CPROVER_next_thread_id#2$wclk$8| #b10110011)
(= |main::1::t635!0@1#2$wclk$8| #b10110100)
(= |main::1::t636!0@1#1$wclk$8| #b10110110)
(= |__CPROVER_next_thread_id#3$rclk$8| #b10110111)
(= |__CPROVER_next_thread_id#5$wclk$8| #b10110111)
(= |main::1::t636!0@1#2$wclk$8| #b10111000)
(= |main::1::t637!0@1#1$wclk$8| #b10111010)
(= |__CPROVER_next_thread_id#6$rclk$8| #b10111011)
(= |__CPROVER_next_thread_id#8$wclk$8| #b10111011)
(= |main::1::t637!0@1#2$wclk$8| #b10111100)
(= |main$tmp_guard0#2$wclk$8| #b11111010)
(= |main$tmp_guard0#3$rclk$8| #b11111011)
(= |a$r_buff0_thd0#2$rclk$8| #b11111100)
(= |main$tmp_guard1#3$rclk$8| #b11111101)
(= |main$tmp_guard1#4$wclk$8| #b11111101)
(= |main$tmp_guard1#5$rclk$8| #b11111110)
(= |main$tmp_guard1#6$rclk$8| #b11111111)
(= array_of.0 @fun_10)
(= |__CPROVER_threads_exited#2| @fun_7)
(= |__CPROVER_threads_exited#4| @fun_10)
(= |__CPROVER_threads_exited#6| @fun_11)
(function @fun_10
 (type (Array (_ BitVec 32) (_ BitVec 1)))
 (= (@fun_10 #b00000000000000000000000000000000) #b0)
 (= (@fun_10 #b10000000000000000000000000000000) #b0)
 (default #b1))
(function @fun_7
 (type (Array (_ BitVec 32) (_ BitVec 1)))
 (default #b1))
(function @fun_11
 (type (Array (_ BitVec 32) (_ BitVec 1)))
 (= (@fun_11 #b10000000000000000000000000000000) #b0)
 (default #b1))

real	0m0.032s
user	0m0.028s
sys	0m0.003s
State: AC Run_time: 0.03379344940185547